p cnf 14 33
-1 -4 0
1 4 0
-2 -5 0
2 5 0
-2 -3 6 0
2 -6 0
3 -6 0
-4 -6 7 0
4 -7 0
6 -7 0
5 7 -8 0
-5 8 0
-7 8 0
-1 -2 9 0
1 -9 0
2 -9 0
2 3 -10 0
-2 10 0
-3 10 0
1 3 -11 0
-1 11 0
-3 11 0
-10 -12 0
10 12 0
12 11 -13 0
-12 13 0
-11 13 0
-9 -13 -14 0
9 13 -14 0
9 -13 14 0
-9 13 14 0
-8 -14 0
8 14 0
